88
14
23
0
13
11
31
37
13
19
12
39
18
13
24
10
42
13
0
128
67
13
0
11
25
19
0
36
0
16
9
12
23
0
13
31
0
0
0
20
0
0
0
13
9
30
17
11
0
20
11
0
40
26
14
11
9
17
0
0
33
18
17
0
15
19
13
24
24
23
24
0
15
38
20
25
0
0
11
19
0
0
0
0
36
0
42
15
0
0
79
123
16
0
29
10
44
10
25
11
